HUN,8,6,834
3,14,4,16,5,2,2,11,1,8,0,11
3,18,0,9,1,1,2,13,5,21,4,19
3,6,0,21,2,21,4,22,1,18,5,1
3,11,1,9,5,6,2,1,0,12,4,18
3,29,1,6,2,27,0,17,4,3,5,13
2,7,4,12,1,16,0,16,5,21,3,10
2,28,4,20,1,15,5,21,3,7,0,18
4,23,0,13,3,14,5,21,1,30,2,5
